molecule {
0 1
C        1.4007098424   -0.4000191057    0.0015398648
N        0.2141796627   -0.4410039556    0.0013558703
H        0.9780462115    0.7323552964    0.0017565982
}

set basis 6-31g

gradient('hf')

